11,1	0,0	15,1	5,2	0,0	0,0	0,0	0,0	0,0	17,2
10,8	9,3	0,0	8,4	9,8	0,0	0,0	9,7	0,0	0,0
0,0	0,0	6,9	0,0	12,2	6,9	0,0	0,0	7,7	0,0
16,3	0,0	8,7	0,0	0,0	0,0	17,7	0,0	0,0	0,0
0,0	6,6	0,0	18,8	20,0	0,0	0,0	15,8	0,0	0,0
0,0	17,4	13,6	0,0	7,4	10,0	0,0	0,0	13,2	0,0
0,0	16,1	0,0	19,5	0,0	0,0	5,7	0,0	0,0	19,9
19,1	0,0	11,7	0,0	0,0	0,0	0,0	0,0	0,0	19,3
0,0	16,9	0,0	5,2	15,5	0,0	0,0	13,1	0,0	0,0
0,0	0,0	11,5	0,0	0,0	19,4	18,9	0,0	0,0	6,5
0,0	5,5	0,0	0,0	13,0	0,0	15,1	0,0	11,3	7,5
6,2	0,0	17,6	0,0	9,3	0,0	14,2	12,9	19,2	0,0
0,0	19,8	0,0	0,0	0,0	6,5	0,0	19,2	9,0	16,8
7,0	6,2	16,2	0,0	0,0	7,6	0,0	6,3	17,4	0,0
17,9	0,0	15,7	0,0	19,7	5,7	9,1	17,1	0,0	0,0
0,0	7,7	0,0	6,2	0,0	6,4	0,0	7,9	0,0	0,0
12,1	0,0	19,6	7,5	10,7	0,0	0,0	17,3	0,0	0,0
0,0	0,0	18,5	0,0	0,0	13,1	6,1	0,0	5,4	15,4
6,0	0,0	0,0	18,4	6,5	10,2	16,2	8,7	0,0	18,5
0,0	9,4	0,0	10,2	0,0	0,0	18,8	0,0	14,0	11,6
									
4,7	2,6	3,9	4,2	3,9	3,5	4,6	3,1	4,6	4,5
